14388 16013 12471
16812 15091 13504
17114 14896 13257
14549 13122 16558
14701 16005 11891
16654 15134 14301
15036 13818 16211
17455 13786 14212
13253 12777 16757
16769 14837 14914
17835 13261 13047
15179 13989 16082
17926 13675 12560
15752 13612 16108
15159 15931 12187
13603 16133 10825
16239 14308 15761
16149 15465 13056
13976 14021 16160
16298 15243 14273
15710 15644 13679
15900 14734 15384
15666 15733 11935
14127 13322 16529
17447 14361 13845
17656 12967 13771
15841 14374 15745
16372 15340 12362
13590 12110 16817
16848 14913 14449
13651 12711 16773
15291 13214 16330
17422 13143 14389
14295 13120 16589
15178 15209 14552
14464 12655 16589
14133 13734 16323
17150 14718 14202
16993 14708 14678
17008 14298 15102
14145 15544 13965
